100
120
100
99
99
96
96
92
92
91
91
91
89
87
87
86
86
86
85
84
83
82
81
79
79
78
77
76
76
75
75
74
74
73
71
69
69
69
68
68
66
64
63
63
63
62
62
61
61
58
57
56
56
54
53
53
52
52
52
50
50
50
49
49
48
48
47
45
44
43
42
41
41
40
39
38
37
36
36
35
34
34
32
32
32
31
26
25
24
24
24
24
24
23
23
22
22
21
20
20
20
20
